0 0 0 0
0 1 2 0
0 2 0 0
0 3 0 0
0 4 0 4
0 5 0 4
0 6 0 8
0 7 0 8
0 8 0 8
0 9 0 9
0 10 2 11
0 11 0 4
0 12 0 11
0 13 1 11
0 14 0 19
0 15 0 19
0 16 0 15
0 17 1 12
0 18 0 17
0 19 0 22
0 20 0 19
0 21 1 24
0 22 0 24
0 23 0 19
0 24 0 27
0 25 0 32
0 26 2 15
0 27 0 22
0 28 2 23
0 29 0 31
0 30 1 36
0 31 0 39
